(set-logic QF_S)
(declare-fun var0 () String)
(assert (str.in.re var0 (re.++ (re.union (re.+ (str.to.re "000")) (re.+ (str.to.re "1"))) (re.++ (re.+ (re.* (str.to.re "222"))) (re.++ (re.union (re.union (str.to.re "33") (str.to.re "444")) (re.union (str.to.re "5") (str.to.re "6"))) (re.++ (re.union (re.* (str.to.re "777")) (re.* (str.to.re "8"))) (re.++ (re.* (re.+ (str.to.re "999"))) (re.++ (re.union (re.union (str.to.re "aa") (str.to.re "b")) (re.union (str.to.re "ccc") (str.to.re "dd"))) (re.++ (re.union (re.union (str.to.re "e") (str.to.re "f")) (re.union (str.to.re "ggg") (str.to.re "h"))) (re.++ (re.* (re.+ (str.to.re "i"))) (re.++ (re.+ (re.union (str.to.re "jj") (str.to.re "kkk"))) (re.++ (re.union (re.union (str.to.re "lll") (str.to.re "mm")) (re.union (str.to.re "n") (str.to.re "oo"))) (re.++ (re.* (re.union (str.to.re "ppp") (str.to.re "q"))) (re.++ (re.union (re.union (str.to.re "rrr") (str.to.re "s")) (re.union (str.to.re "tt") (str.to.re "uu"))) (re.++ (re.+ (re.+ (str.to.re "vv"))) (re.++ (re.* (re.+ (str.to.re "www"))) (re.++ (re.union (re.+ (str.to.re "xx")) (re.+ (str.to.re "yy"))) (re.++ (re.+ (re.union (str.to.re "z") (str.to.re "A"))) (re.++ (re.union (re.* (str.to.re "BB")) (re.* (str.to.re "CCC"))) (re.++ (re.+ (re.union (str.to.re "D") (str.to.re "EEE"))) (re.++ (re.+ (re.union (str.to.re "F") (str.to.re "G"))) (re.++ (re.* (re.* (str.to.re "H"))) (re.++ (re.* (re.+ (str.to.re "III"))) (re.++ (re.union (re.union (str.to.re "JJ") (str.to.re "KK")) (re.union (str.to.re "L") (str.to.re "M"))) (re.++ (re.+ (re.* (str.to.re "N"))) (re.++ (re.* (re.union (str.to.re "O") (str.to.re "PP"))) (re.++ (re.* (re.union (str.to.re "QQ") (str.to.re "R"))) (re.++ (re.* (re.union (str.to.re "SS") (str.to.re "TTT"))) (re.++ (re.+ (re.* (str.to.re "U"))) (re.++ (re.* (re.* (str.to.re "VV"))) (re.++ (re.* (re.+ (str.to.re "WW"))) (re.++ (re.union (re.* (str.to.re "X")) (re.* (str.to.re "YYY"))) (re.++ (re.union (re.+ (str.to.re "ZZZ")) (re.+ (str.to.re "!!!"))) (re.++ (re.* (re.* (str.to.re """"""""))) (re.++ (re.union (re.* (str.to.re "###")) (re.* (str.to.re "$$"))) (re.++ (re.+ (re.* (str.to.re "%%%"))) (re.++ (re.+ (re.+ (str.to.re "&&"))) (re.* (re.union (str.to.re "'''") (str.to.re "((("))))))))))))))))))))))))))))))))))))))))
(assert (not (str.in.re var0 (re.++ (re.union (re.* (str.to.re "00")) (re.* (str.to.re "111"))) (re.++ (re.union (re.* (str.to.re "222")) (re.* (str.to.re "33"))) (re.++ (re.+ (re.* (str.to.re "444"))) (re.++ (re.* (re.union (str.to.re "555") (str.to.re "66"))) (re.++ (re.* (re.* (str.to.re "777"))) (re.++ (re.* (re.* (str.to.re "8"))) (re.++ (re.* (re.* (str.to.re "999"))) (re.++ (re.* (re.+ (str.to.re "a"))) (re.++ (re.* (re.union (str.to.re "bbb") (str.to.re "ccc"))) (re.++ (re.+ (re.+ (str.to.re "ddd"))) (re.++ (re.* (re.+ (str.to.re "eee"))) (re.++ (re.+ (re.* (str.to.re "fff"))) (re.++ (re.* (re.+ (str.to.re "gg"))) (re.++ (re.* (re.union (str.to.re "hhh") (str.to.re "i"))) (re.++ (re.union (re.* (str.to.re "j")) (re.* (str.to.re "kk"))) (re.++ (re.union (re.+ (str.to.re "l")) (re.+ (str.to.re "mmm"))) (re.++ (re.+ (re.union (str.to.re "nnn") (str.to.re "o"))) (re.++ (re.+ (re.union (str.to.re "p") (str.to.re "qq"))) (re.++ (re.* (re.union (str.to.re "r") (str.to.re "s"))) (re.++ (re.+ (re.union (str.to.re "ttt") (str.to.re "u"))) (re.++ (re.* (re.* (str.to.re "vvv"))) (re.++ (re.union (re.* (str.to.re "www")) (re.* (str.to.re "xxx"))) (re.++ (re.union (re.* (str.to.re "yy")) (re.* (str.to.re "zz"))) (re.++ (re.union (re.* (str.to.re "A")) (re.* (str.to.re "BB"))) (re.++ (re.union (re.+ (str.to.re "CC")) (re.+ (str.to.re "DD"))) (re.++ (re.* (re.* (str.to.re "EE"))) (re.++ (re.* (re.union (str.to.re "F") (str.to.re "GGG"))) (re.++ (re.+ (re.+ (str.to.re "H"))) (re.++ (re.union (re.union (str.to.re "III") (str.to.re "JJJ")) (re.union (str.to.re "K") (str.to.re "L"))) (re.++ (re.union (re.* (str.to.re "MM")) (re.* (str.to.re "NNN"))) (re.++ (re.* (re.union (str.to.re "OOO") (str.to.re "P"))) (re.++ (re.* (re.union (str.to.re "Q") (str.to.re "RR"))) (re.++ (re.+ (re.* (str.to.re "S"))) (re.++ (re.* (re.* (str.to.re "TTT"))) (re.++ (re.* (re.+ (str.to.re "UU"))) (re.+ (re.* (str.to.re "VVV")))))))))))))))))))))))))))))))))))))))))
(check-sat)